
Gurobi 11.0.1 (mac64[x86], gurobi_cl) logging started Sat Aug  3 00:26:12 2024

Set parameter Username
Set parameter TimeLimit to value 100
Set parameter LogFile to value "./lp_solutions/grafo10051.30.log"
Using license file /Users/sara/gurobi.lic
Academic license - for non-commercial use only - expires 2025-05-12

Gurobi Optimizer version 11.0.1 build v11.0.1rc0 (mac64[x86] - Darwin 21.6.0 21G651)
Copyright (c) 2024, Gurobi Optimization, LLC

Read LP format model from file ./lp_problems/grafo10051.30.lp
Reading time = 0.07 seconds
: 15504 rows, 1025 columns, 46612 nonzeros

CPU model: Intel(R) Core(TM) i5-1038NG7 CPU @ 2.00GHz
Thread count: 4 physical cores, 8 logical processors, using up to 8 threads

Optimize a model with 15504 rows, 1025 columns and 46612 nonzeros
Model fingerprint: 0x8f07e58b
Variable types: 28 continuous, 997 integer (997 binary)
Coefficient statistics:
  Matrix range     [1e+00, 5e+01]
  Objective range  [1e+00, 1e+00]
  Bounds range     [1e+00, 1e+00]
  RHS range        [1e+00, 5e+01]
Found heuristic solution: objective -0.0000000
Presolve removed 456 rows and 88 columns
Presolve time: 0.37s
Presolved: 15048 rows, 937 columns, 45592 nonzeros
Variable types: 0 continuous, 937 integer (909 binary)

Root relaxation: objective 6.678843e+01, 2383 iterations, 0.85 seconds (0.34 work units)

    Nodes    |    Current Node    |     Objective Bounds      |     Work
 Expl Unexpl |  Obj  Depth IntInf | Incumbent    BestBd   Gap | It/Node Time

     0     0   66.78843    0  300   -0.00000   66.78843      -     -    2s
H    0     0                       2.0000000   66.78843  3239%     -    2s
     0     0   66.78843    0  300    2.00000   66.78843  3239%     -    2s
     0     0   66.78843    0  294    2.00000   66.78843  3239%     -    4s
H    0     0                       4.0000000   66.78843  1570%     -    4s
H    0     0                       5.0000000   66.77500  1236%     -    5s
     0     0   59.78052    0  314    5.00000   59.78052  1096%     -    6s
H    0     0                       7.0000000   59.72793   753%     -    6s
     0     0   59.72793    0  314    7.00000   59.72793   753%     -    6s
     0     0   48.97628    0  322    7.00000   48.97628   600%     -    7s
     0     0   48.47628    0  312    7.00000   48.47628   593%     -    7s
     0     0   48.47628    0  314    7.00000   48.47628   593%     -    7s
     0     0   43.58025    0  281    7.00000   43.58025   523%     -    8s
     0     0   43.23457    0  289    7.00000   43.23457   518%     -    8s
     0     0   43.23457    0  284    7.00000   43.23457   518%     -    9s
     0     0   42.97288    0  290    7.00000   42.97288   514%     -    9s
     0     0   42.97151    0  300    7.00000   42.97151   514%     -    9s
     0     0   42.75000    0  270    7.00000   42.75000   511%     -   10s
     0     0   42.50000    0  271    7.00000   42.50000   507%     -   10s
     0     0   42.50000    0  274    7.00000   42.50000   507%     -   11s
H    0     0                       8.0000000   42.25000   428%     -   11s
     0     0   42.25000    0  273    8.00000   42.25000   428%     -   11s
     0     0   42.25000    0  270    8.00000   42.25000   428%     -   11s
     0     0   42.25000    0  267    8.00000   42.25000   428%     -   11s
     0     0   42.25000    0  269    8.00000   42.25000   428%     -   12s
     0     0   42.25000    0  281    8.00000   42.25000   428%     -   12s
     0     0   42.25000    0  280    8.00000   42.25000   428%     -   12s
     0     0   42.23661    0  270    8.00000   42.23661   428%     -   12s
     0     0   42.00000    0  266    8.00000   42.00000   425%     -   13s
     0     0   42.00000    0  266    8.00000   42.00000   425%     -   13s
H    0     0                       9.0000000   41.85806   365%     -   13s
     0     0   41.85806    0  267    9.00000   41.85806   365%     -   13s
     0     0   41.85806    0  234    9.00000   41.85806   365%     -   14s
     0     0   41.85806    0  235    9.00000   41.85806   365%     -   14s
     0     0   41.85806    0  222    9.00000   41.85806   365%     -   16s
     0     0   41.85806    0  218    9.00000   41.85806   365%     -   16s
     0     0   41.85806    0  182    9.00000   41.85806   365%     -   17s
     0     0   41.85806    0  247    9.00000   41.85806   365%     -   18s
     0     0   41.74561    0  228    9.00000   41.74561   364%     -   19s
     0     0   41.49123    0  235    9.00000   41.49123   361%     -   19s
     0     0   41.00000    0  236    9.00000   41.00000   356%     -   19s
     0     0   41.00000    0  225    9.00000   41.00000   356%     -   20s
     0     0   41.00000    0  227    9.00000   41.00000   356%     -   20s
     0     0   41.00000    0  239    9.00000   41.00000   356%     -   21s
     0     0   41.00000    0  239    9.00000   41.00000   356%     -   22s
     0     2   41.00000    0  217    9.00000   41.00000   356%     -   24s
     1     4   38.98525    1  254    9.00000   41.00000   356%  1744   25s
    27    31   33.98182    7  216    9.00000   39.99933   344%   751   30s
H   30    31                      10.0000000   39.99933   300%   733   30s
    42    43   33.81633   10  243   10.00000   39.99933   300%   725   36s
    63    56   33.56044   13  248   10.00000   39.99933   300%   676   40s
   111    86   20.00000   25  223   10.00000   39.99933   300%   514   45s
   150   105   19.96429   30  191   10.00000   39.99933   300%   516   50s
   197   120   19.00000   36  196   10.00000   39.99933   300%   534   55s
H  207   123                      11.0000000   39.99933   264%   556   56s
   235   145   18.00000   40  207   11.00000   39.99933   264%   595   62s
   263   160   31.58835   18  262   11.00000   39.99933   264%   594   65s
   354   207   21.80890   37  211   11.00000   39.99933   264%   537   70s
   423   242   32.02473    9  223   11.00000   39.94000   263%   532   75s
   445   268   28.65385   13  205   11.00000   39.94000   263%   534   80s
   470   277   25.73077   18  189   11.00000   39.94000   263%   534   85s
   545   306   34.66087   10  257   11.00000   39.81494   262%   503   92s
   578   329   28.56044   15  218   11.00000   39.81494   262%   498   98s
   609   343 infeasible   19        11.00000   39.81494   262%   500  100s

Cutting planes:
  Gomory: 3
  Cover: 3
  Clique: 2
  MIR: 53
  StrongCG: 1
  GUB cover: 1
  Inf proof: 11
  Zero half: 21
  RLT: 17
  BQP: 1

Explored 646 nodes (343840 simplex iterations) in 100.08 seconds (40.25 work units)
Thread count was 8 (of 8 available processors)

Solution count 10: 11 10 9 ... -0

Time limit reached
Best objective 1.100000000000e+01, best bound 3.900000000000e+01, gap 254.5455%

Wrote result file './lp_solutions/grafo10051.30.sol'

